c Reduced graph for GEOM100b_0 generated by Cyril Grelier
p edge 97 1030
e 1 2
e 1 3
e 1 4
e 1 5
e 1 7
e 1 8
e 1 9
e 1 10
e 1 11
e 1 12
e 1 14
e 1 15
e 1 16
e 1 18
e 1 19
e 1 20
e 1 21
e 1 22
e 1 23
e 1 24
e 1 25
e 1 26
e 1 27
e 1 29
e 1 32
e 1 33
e 1 35
e 1 36
e 1 37
e 1 38
e 1 40
e 1 41
e 1 44
e 1 48
e 1 50
e 1 57
e 1 67
e 2 3
e 2 4
e 2 5
e 2 7
e 2 8
e 2 9
e 2 10
e 2 11
e 2 12
e 2 13
e 2 14
e 2 15
e 2 17
e 2 18
e 2 19
e 2 21
e 2 22
e 2 24
e 2 27
e 2 33
e 2 34
e 2 35
e 2 36
e 2 38
e 2 44
e 2 45
e 2 48
e 2 52
e 2 53
e 2 55
e 2 57
e 2 58
e 2 69
e 3 4
e 3 5
e 3 8
e 3 10
e 3 14
e 3 15
e 3 16
e 3 19
e 3 22
e 3 23
e 3 25
e 3 26
e 3 29
e 3 32
e 3 33
e 3 35
e 3 36
e 3 37
e 3 38
e 3 40
e 3 41
e 3 44
e 3 48
e 3 50
e 3 57
e 3 60
e 3 67
e 3 68
e 3 70
e 3 83
e 4 5
e 4 7
e 4 8
e 4 10
e 4 12
e 4 14
e 4 15
e 4 16
e 4 19
e 4 20
e 4 21
e 4 22
e 4 23
e 4 24
e 4 25
e 4 26
e 4 27
e 4 28
e 4 29
e 4 32
e 4 33
e 4 35
e 4 36
e 4 37
e 4 38
e 4 40
e 4 41
e 4 50
e 4 67
e 5 7
e 5 8
e 5 9
e 5 10
e 5 11
e 5 12
e 5 13
e 5 14
e 5 15
e 5 17
e 5 18
e 5 19
e 5 21
e 5 22
e 5 23
e 5 24
e 5 25
e 5 26
e 5 27
e 5 29
e 5 33
e 5 34
e 5 35
e 5 36
e 5 38
e 5 44
e 5 45
e 5 55
e 6 8
e 6 12
e 6 14
e 6 19
e 6 20
e 6 22
e 6 23
e 6 26
e 6 28
e 6 29
e 6 30
e 6 31
e 6 39
e 6 42
e 6 43
e 6 46
e 6 47
e 6 49
e 6 51
e 6 56
e 6 61
e 6 62
e 6 63
e 6 64
e 6 65
e 6 71
e 6 72
e 6 75
e 6 78
e 6 79
e 6 81
e 7 8
e 7 9
e 7 11
e 7 12
e 7 13
e 7 14
e 7 15
e 7 17
e 7 18
e 7 19
e 7 21
e 7 22
e 7 24
e 7 27
e 7 29
e 7 34
e 7 35
e 7 45
e 7 52
e 7 53
e 7 54
e 7 55
e 7 58
e 7 66
e 7 69
e 7 76
e 7 77
e 8 9
e 8 10
e 8 11
e 8 12
e 8 13
e 8 14
e 8 15
e 8 16
e 8 18
e 8 19
e 8 20
e 8 21
e 8 22
e 8 23
e 8 24
e 8 26
e 8 27
e 8 28
e 8 29
e 8 34
e 8 35
e 8 37
e 8 40
e 9 11
e 9 12
e 9 13
e 9 14
e 9 15
e 9 17
e 9 18
e 9 19
e 9 21
e 9 22
e 9 24
e 9 27
e 9 29
e 9 34
e 9 35
e 9 45
e 9 52
e 9 53
e 9 54
e 9 58
e 9 66
e 9 69
e 9 76
e 9 77
e 10 14
e 10 15
e 10 16
e 10 19
e 10 22
e 10 25
e 10 32
e 10 33
e 10 35
e 10 36
e 10 37
e 10 38
e 10 40
e 10 41
e 10 44
e 10 48
e 10 50
e 10 57
e 10 60
e 10 68
e 10 70
e 10 73
e 10 74
e 11 13
e 11 14
e 11 15
e 11 17
e 11 18
e 11 19
e 11 21
e 11 22
e 11 24
e 11 27
e 11 33
e 11 34
e 11 35
e 11 44
e 11 45
e 11 52
e 11 53
e 11 55
e 11 58
e 11 69
e 11 76
e 11 77
e 11 80
e 12 13
e 12 14
e 12 19
e 12 20
e 12 21
e 12 22
e 12 23
e 12 24
e 12 26
e 12 27
e 12 28
e 12 29
e 12 30
e 12 31
e 12 34
e 12 39
e 12 42
e 12 49
e 12 54
e 12 59
e 12 72
e 13 14
e 13 15
e 13 17
e 13 18
e 13 19
e 13 21
e 13 22
e 13 24
e 13 27
e 13 34
e 13 35
e 13 45
e 13 52
e 13 53
e 13 55
e 13 58
e 13 66
e 13 69
e 13 76
e 13 77
e 13 80
e 13 90
e 14 15
e 14 16
e 14 18
e 14 19
e 14 20
e 14 21
e 14 22
e 14 23
e 14 24
e 14 26
e 14 27
e 14 28
e 14 29
e 14 34
e 14 37
e 14 40
e 15 17
e 15 18
e 15 19
e 15 21
e 15 22
e 15 33
e 15 35
e 15 36
e 15 38
e 15 44
e 15 45
e 15 48
e 15 52
e 15 53
e 15 55
e 15 57
e 15 58
e 16 20
e 16 23
e 16 25
e 16 32
e 16 33
e 16 36
e 16 37
e 16 38
e 16 40
e 16 41
e 16 50
e 16 60
e 16 67
e 16 68
e 16 70
e 16 73
e 16 74
e 16 75
e 16 82
e 16 83
e 16 86
e 16 88
e 17 18
e 17 19
e 17 21
e 17 22
e 17 24
e 17 27
e 17 34
e 17 35
e 17 45
e 17 52
e 17 53
e 17 55
e 17 58
e 17 66
e 17 69
e 17 76
e 17 77
e 17 80
e 17 89
e 17 90
e 17 92
e 18 19
e 18 21
e 18 22
e 18 24
e 18 27
e 18 34
e 18 35
e 18 44
e 18 45
e 18 52
e 18 53
e 18 55
e 18 58
e 18 69
e 18 76
e 18 77
e 18 80
e 19 21
e 19 22
e 19 23
e 19 24
e 19 26
e 19 27
e 19 28
e 19 29
e 19 34
e 19 42
e 19 54
e 20 23
e 20 26
e 20 28
e 20 29
e 20 30
e 20 31
e 20 37
e 20 40
e 20 43
e 20 46
e 20 47
e 20 49
e 20 50
e 20 65
e 20 67
e 20 71
e 20 75
e 20 79
e 20 82
e 20 83
e 20 85
e 21 22
e 21 23
e 21 24
e 21 26
e 21 27
e 21 29
e 21 34
e 21 35
e 21 42
e 21 54
e 21 59
e 21 66
e 21 69
e 22 23
e 22 24
e 22 26
e 22 27
e 22 28
e 22 29
e 22 34
e 22 42
e 22 54
e 23 24
e 23 26
e 23 27
e 23 28
e 23 29
e 23 30
e 23 31
e 23 37
e 23 40
e 23 47
e 23 49
e 23 67
e 23 75
e 23 82
e 24 26
e 24 27
e 24 29
e 24 34
e 24 39
e 24 42
e 24 54
e 24 59
e 24 66
e 24 72
e 25 32
e 25 33
e 25 36
e 25 37
e 25 38
e 25 40
e 25 41
e 25 44
e 25 48
e 25 50
e 25 57
e 25 60
e 25 67
e 25 68
e 25 70
e 25 73
e 25 74
e 25 82
e 25 83
e 25 86
e 25 88
e 26 27
e 26 28
e 26 29
e 26 30
e 26 31
e 26 37
e 26 39
e 26 40
e 26 43
e 26 46
e 26 47
e 26 49
e 26 75
e 27 29
e 27 34
e 27 39
e 27 42
e 27 54
e 27 59
e 27 66
e 28 29
e 28 30
e 28 31
e 28 37
e 28 40
e 28 43
e 28 46
e 28 47
e 28 49
e 28 64
e 28 65
e 28 67
e 28 71
e 28 75
e 28 79
e 28 85
e 29 30
e 29 31
e 29 34
e 29 39
e 29 42
e 29 49
e 29 54
e 30 31
e 30 39
e 30 43
e 30 46
e 30 47
e 30 49
e 30 51
e 30 56
e 30 61
e 30 62
e 30 63
e 30 64
e 30 65
e 30 71
e 30 75
e 30 78
e 30 79
e 30 81
e 30 85
e 31 39
e 31 42
e 31 43
e 31 46
e 31 47
e 31 49
e 31 51
e 31 56
e 31 61
e 31 62
e 31 63
e 31 64
e 31 65
e 31 71
e 31 72
e 31 78
e 31 79
e 31 81
e 32 33
e 32 36
e 32 37
e 32 38
e 32 40
e 32 41
e 32 44
e 32 48
e 32 50
e 32 57
e 32 60
e 32 67
e 32 68
e 32 70
e 32 73
e 32 74
e 32 82
e 32 83
e 32 86
e 32 88
e 33 35
e 33 36
e 33 38
e 33 41
e 33 44
e 33 45
e 33 48
e 33 55
e 33 57
e 33 58
e 33 68
e 33 70
e 33 73
e 33 74
e 34 39
e 34 42
e 34 54
e 34 59
e 34 66
e 34 69
e 34 76
e 34 84
e 35 36
e 35 38
e 35 44
e 35 45
e 35 48
e 35 53
e 35 55
e 35 57
e 35 58
e 36 38
e 36 41
e 36 44
e 36 45
e 36 48
e 36 55
e 36 57
e 36 68
e 36 70
e 36 73
e 36 74
e 36 86
e 37 40
e 37 41
e 37 47
e 37 49
e 37 50
e 37 60
e 37 67
e 37 75
e 37 82
e 37 83
e 37 85
e 38 41
e 38 44
e 38 45
e 38 48
e 38 57
e 38 60
e 38 68
e 38 70
e 38 73
e 38 74
e 38 86
e 39 42
e 39 43
e 39 46
e 39 51
e 39 54
e 39 56
e 39 59
e 39 61
e 39 62
e 39 63
e 39 72
e 39 84
e 39 87
e 39 91
e 40 41
e 40 47
e 40 50
e 40 60
e 40 67
e 40 75
e 40 82
e 40 83
e 40 85
e 41 44
e 41 48
e 41 50
e 41 57
e 41 60
e 41 68
e 41 70
e 41 73
e 41 74
e 41 86
e 41 88
e 42 51
e 42 54
e 42 56
e 42 59
e 42 61
e 42 62
e 42 63
e 42 72
e 42 84
e 42 87
e 42 91
e 42 93
e 43 46
e 43 47
e 43 49
e 43 51
e 43 56
e 43 61
e 43 62
e 43 63
e 43 64
e 43 65
e 43 71
e 43 78
e 43 79
e 43 81
e 43 91
e 44 45
e 44 48
e 44 55
e 44 57
e 44 58
e 44 68
e 44 74
e 45 48
e 45 52
e 45 53
e 45 55
e 45 57
e 45 58
e 45 80
e 45 89
e 46 47
e 46 49
e 46 51
e 46 56
e 46 61
e 46 62
e 46 63
e 46 64
e 46 65
e 46 71
e 46 78
e 46 79
e 46 81
e 47 49
e 47 64
e 47 65
e 47 67
e 47 71
e 47 75
e 47 79
e 47 81
e 47 82
e 47 85
e 48 55
e 48 57
e 48 58
e 48 68
e 48 70
e 48 73
e 48 74
e 49 56
e 49 64
e 49 65
e 49 71
e 49 75
e 49 79
e 49 81
e 49 85
e 50 60
e 50 67
e 50 70
e 50 73
e 50 75
e 50 82
e 50 83
e 50 85
e 50 86
e 50 88
e 51 54
e 51 56
e 51 59
e 51 61
e 51 62
e 51 63
e 51 64
e 51 65
e 51 71
e 51 72
e 51 78
e 51 81
e 51 87
e 51 91
e 52 53
e 52 55
e 52 58
e 52 66
e 52 69
e 52 76
e 52 77
e 52 80
e 52 89
e 52 90
e 52 92
e 53 55
e 53 58
e 53 69
e 53 76
e 53 77
e 53 80
e 53 89
e 53 90
e 53 92
e 54 59
e 54 62
e 54 63
e 54 66
e 54 72
e 54 84
e 54 93
e 55 57
e 55 58
e 55 80
e 55 89
e 56 61
e 56 62
e 56 63
e 56 64
e 56 65
e 56 71
e 56 72
e 56 78
e 56 81
e 56 87
e 56 91
e 57 68
e 57 70
e 57 73
e 57 74
e 58 80
e 58 89
e 58 90
e 59 62
e 59 63
e 59 66
e 59 72
e 59 84
e 59 87
e 59 93
e 59 94
e 59 95
e 59 97
e 60 67
e 60 68
e 60 70
e 60 73
e 60 74
e 60 82
e 60 83
e 60 86
e 60 88
e 61 62
e 61 63
e 61 64
e 61 65
e 61 71
e 61 72
e 61 78
e 61 81
e 61 87
e 61 91
e 62 63
e 62 64
e 62 72
e 62 78
e 62 84
e 62 87
e 62 91
e 63 64
e 63 65
e 63 72
e 63 78
e 63 87
e 63 91
e 64 65
e 64 71
e 64 78
e 64 79
e 64 81
e 65 71
e 65 78
e 65 79
e 65 81
e 66 69
e 66 76
e 66 77
e 66 84
e 66 94
e 66 95
e 66 96
e 67 75
e 67 82
e 67 83
e 67 85
e 68 70
e 68 73
e 68 74
e 68 86
e 68 88
e 69 76
e 69 77
e 69 80
e 69 90
e 69 92
e 69 96
e 70 73
e 70 74
e 70 86
e 70 88
e 71 78
e 71 79
e 71 81
e 72 84
e 72 87
e 72 91
e 72 93
e 73 74
e 73 86
e 73 88
e 74 86
e 74 88
e 75 79
e 75 82
e 75 83
e 75 85
e 76 77
e 76 80
e 76 89
e 76 90
e 76 92
e 76 96
e 77 80
e 77 89
e 77 90
e 77 92
e 77 96
e 78 81
e 78 87
e 78 91
e 79 81
e 79 85
e 80 89
e 80 90
e 80 92
e 82 83
e 82 85
e 83 85
e 83 88
e 84 87
e 84 93
e 84 94
e 84 95
e 84 97
e 86 88
e 87 91
e 89 90
e 89 92
e 90 92
e 93 94
e 93 95
e 93 97
e 94 95
e 94 96
e 94 97
e 95 96
e 95 97
e 96 97
